25 50
50 228 10
117 133 1
142 298 1
133 286 1
123 286 1
133 268 1
151 255 1
55 231 2
116 148 1
111 148 1
106 117 1
178 329 1
110 372 2
154 327 2
188 327 4
137 315 2
104 315 2
117 312 2
204 302 2
188 302 2
171 302 2
154 302 2
121 302 2
121 205 2
167 202 2
500 1000 
500 1000 
500 1000 
500 1000 
500 1000 
500 1000 
500 1000 
500 1000 
500 1000 
500 1000 
500 1000 
500 1000 
500 1000 
500 1000 
500 1000 
500 1000 
500 1000 
500 1000 
500 1000 
500 1000 
500 1000 
500 1000 
500 1000 
500 1000 
500 1000 
500 1000 
500 1000 
500 1000 
500 1000 
500 1000 
500 1000 
500 1000 
500 1000 
500 1000 
500 1000 
500 1000 
500 1000 
500 1000 
500 1000 
500 1000 
500 1000 
500 1000 
500 1000 
500 1000 
500 1000 
500 1000 
500 1000 
500 1000 
500 1000 
500 1000 
